Translating instance to solver...

GLPSOL--GLPK LP/MIP Solver 5.0
Parameter(s) specified in the command line:
 --tmlim 28800 --mipgap 0.0 --write /tmp/tmp290sbakq.glpk.raw --wglp /tmp/tmpeg80za9m.glpk.glp
 --cpxlp /tmp/tmpo4k4tfbk.pyomo.lp
Reading problem data from '/tmp/tmpo4k4tfbk.pyomo.lp'...
/tmp/tmpo4k4tfbk.pyomo.lp:131696: warning: lower bound of variable 'x2' redefined
/tmp/tmpo4k4tfbk.pyomo.lp:131696: warning: upper bound of variable 'x2' redefined
20953 rows, 14603 columns, 54155 non-zeros
14603 integer variables, 14579 of which are binary
146275 lines were read
Writing problem data to '/tmp/tmpeg80za9m.glpk.glp'...
99256 lines were written
GLPK Integer Optimizer 5.0
20953 rows, 14603 columns, 54155 non-zeros
14603 integer variables, 14579 of which are binary
Preprocessing...
216 hidden packing inequaliti(es) were detected
2064 hidden covering inequaliti(es) were detected
155 constraint coefficient(s) were reduced
8668 rows, 4206 columns, 22493 non-zeros
4206 integer variables, 4183 of which are binary
Scaling...
 A: min|aij| =  1.000e+00  max|aij| =  2.300e+01  ratio =  2.300e+01
GM: min|aij| =  5.956e-01  max|aij| =  1.679e+00  ratio =  2.819e+00
EQ: min|aij| =  3.556e-01  max|aij| =  1.000e+00  ratio =  2.812e+00
2N: min|aij| =  2.500e-01  max|aij| =  1.625e+00  ratio =  6.500e+00
Constructing initial basis...
Size of triangular part is 8667
Solving LP relaxation...
GLPK Simplex Optimizer 5.0
8668 rows, 4206 columns, 22493 non-zeros
      0: obj =   0.000000000e+00 inf =   1.739e+02 (177)
    786: obj =   5.381191583e+00 inf =   2.957e-14 (0) 5
Perturbing LP to avoid stalling [1318]...
Removing LP perturbation [1566]...
*  1566: obj =   4.459756900e+00 inf =   4.037e-14 (0) 4
OPTIMAL LP SOLUTION FOUND
Integer optimization begins...
Long-step dual simplex will be used
+  1566: mip =     not found yet >=              -inf        (1; 0)
+  5440: mip =     not found yet >=   4.610935100e+00        (108; 2)
+  8810: mip =     not found yet >=   4.632041500e+00        (214; 5)
+ 11013: mip =     not found yet >=   4.635949800e+00        (349; 9)
+ 13680: mip =     not found yet >=   4.647846000e+00        (464; 12)
+ 18018: mip =     not found yet >=   4.647846000e+00        (557; 18)
+ 20490: mip =     not found yet >=   4.661327833e+00        (671; 23)
+ 22333: mip =     not found yet >=   4.661327833e+00        (801; 26)
+ 24516: mip =     not found yet >=   4.661327833e+00        (922; 30)
+ 28170: mip =     not found yet >=   4.697128000e+00        (1053; 37)
+ 29747: mip =     not found yet >=   4.697128000e+00        (1171; 39)
+ 31056: mip =     not found yet >=   4.697128000e+00        (1311; 40)
Time used: 60.0 secs.  Memory used: 21.5 Mb.
+ 32428: mip =     not found yet >=   4.697128000e+00        (1456; 42)
+ 34088: mip =     not found yet >=   4.697128000e+00        (1593; 44)
+ 36170: mip =     not found yet >=   4.697128000e+00        (1717; 46)
+ 38574: mip =     not found yet >=   4.728397273e+00        (1880; 48)
+ 42422: mip =     not found yet >=   4.741552871e+00        (2001; 52)
+ 46060: mip =     not found yet >=   4.765009260e+00        (2123; 59)
+ 49322: mip =     not found yet >=   4.811176444e+00        (2228; 66)
+ 54995: >>>>>   5.758910000e+00 >=   4.841237000e+00  15.9% (2403; 90)
+ 59373: mip =   5.758910000e+00 >=   4.841237000e+00  15.9% (903; 2999)
+ 61779: mip =   5.758910000e+00 >=   4.847128000e+00  15.8% (994; 3007)
+ 65868: mip =   5.758910000e+00 >=   4.895164333e+00  15.0% (1030; 3029)
+ 69831: mip =   5.758910000e+00 >=   4.895164333e+00  15.0% (1007; 3052)
Time used: 120.0 secs.  Memory used: 26.4 Mb.
+ 73015: mip =   5.758910000e+00 >=   4.895164333e+00  15.0% (994; 3065)
+ 74671: >>>>>   5.597128000e+00 >=   4.964952937e+00  11.3% (1034; 3077)
+ 76318: mip =   5.597128000e+00 >=   4.967128000e+00  11.3% (723; 3904)
+ 79483: mip =   5.597128000e+00 >=   5.000832304e+00  10.7% (807; 3921)
+ 81959: mip =   5.597128000e+00 >=   5.041425687e+00   9.9% (892; 3937)
+ 86137: mip =   5.597128000e+00 >=   5.078170389e+00   9.3% (979; 3962)
+ 91390: mip =   5.597128000e+00 >=   5.124696125e+00   8.4% (1024; 4010)
+ 96815: mip =   5.597128000e+00 >=   5.147128000e+00   8.0% (1163; 4058)
+102424: mip =   5.597128000e+00 >=   5.147128000e+00   8.0% (1297; 4139)
+106612: mip =   5.597128000e+00 >=   5.147128000e+00   8.0% (1406; 4162)
+110735: mip =   5.597128000e+00 >=   5.147128000e+00   8.0% (1549; 4213)
+116715: mip =   5.597128000e+00 >=   5.147128000e+00   8.0% (1678; 4253)
+123350: mip =   5.597128000e+00 >=   5.147128000e+00   8.0% (1795; 4325)
Time used: 180.0 secs.  Memory used: 46.4 Mb.
+127767: mip =   5.597128000e+00 >=   5.147128000e+00   8.0% (1914; 4357)
+131003: mip =   5.597128000e+00 >=   5.147128000e+00   8.0% (1996; 4373)
+133749: mip =   5.597128000e+00 >=   5.147128000e+00   8.0% (2058; 4387)
+135064: mip =   5.597128000e+00 >=   5.147128000e+00   8.0% (2121; 4769)
+136140: mip =   5.597128000e+00 >=   5.147128000e+00   8.0% (2151; 5191)
+138201: mip =   5.597128000e+00 >=   5.147128000e+00   8.0% (2276; 5504)
+139579: mip =   5.597128000e+00 >=   5.147128000e+00   8.0% (2250; 5955)
+141041: mip =   5.597128000e+00 >=   5.147128000e+00   8.0% (2272; 6369)
+145443: mip =   5.597128000e+00 >=   5.147128000e+00   8.0% (2165; 6749)
+149319: mip =   5.597128000e+00 >=   5.147128000e+00   8.0% (2228; 6776)
+152837: mip =   5.597128000e+00 >=   5.147128000e+00   8.0% (2473; 6796)
+156536: mip =   5.597128000e+00 >=   5.147128000e+00   8.0% (2671; 6823)
Time used: 240.0 secs.  Memory used: 55.8 Mb.
+160448: mip =   5.597128000e+00 >=   5.147128000e+00   8.0% (2727; 6845)
+163706: mip =   5.597128000e+00 >=   5.147128000e+00   8.0% (2831; 6858)
+168171: mip =   5.597128000e+00 >=   5.147128000e+00   8.0% (2890; 6880)
+173257: mip =   5.597128000e+00 >=   5.148694402e+00   8.0% (2957; 6914)
+177625: mip =   5.597128000e+00 >=   5.160427609e+00   7.8% (3001; 6967)
+181480: mip =   5.597128000e+00 >=   5.172415200e+00   7.6% (3057; 7035)
+187070: mip =   5.597128000e+00 >=   5.173727217e+00   7.6% (3163; 7135)
+190936: mip =   5.597128000e+00 >=   5.173727217e+00   7.6% (3049; 7533)
+195803: mip =   5.597128000e+00 >=   5.173727217e+00   7.6% (3084; 7792)
+199839: mip =   5.597128000e+00 >=   5.177128000e+00   7.5% (3152; 7852)
+202862: mip =   5.597128000e+00 >=   5.179992826e+00   7.5% (3230; 7891)
+205160: mip =   5.597128000e+00 >=   5.179992826e+00   7.5% (3309; 7921)
Time used: 300.0 secs.  Memory used: 70.7 Mb.
+208639: mip =   5.597128000e+00 >=   5.180248957e+00   7.4% (3342; 7992)
+211228: mip =   5.597128000e+00 >=   5.180300183e+00   7.4% (3410; 8025)
+213738: mip =   5.597128000e+00 >=   5.181553304e+00   7.4% (3481; 8052)
+214863: mip =   5.597128000e+00 >=   5.181553304e+00   7.4% (3538; 8061)
+215364: mip =   5.597128000e+00 >=   5.182066490e+00   7.4% (3506; 8259)
+217883: mip =   5.597128000e+00 >=   5.183544753e+00   7.4% (3547; 8296)
+220683: mip =   5.597128000e+00 >=   5.190109769e+00   7.3% (3573; 8359)
+223521: mip =   5.597128000e+00 >=   5.193292435e+00   7.2% (3598; 8417)
+224861: mip =   5.597128000e+00 >=   5.193292435e+00   7.2% (3677; 8460)
+226637: mip =   5.597128000e+00 >=   5.193292435e+00   7.2% (3738; 8504)
+229113: mip =   5.597128000e+00 >=   5.196305310e+00   7.2% (3764; 8593)
+231549: mip =   5.597128000e+00 >=   5.203931435e+00   7.0% (3867; 8627)
Time used: 360.1 secs.  Memory used: 76.8 Mb.
+235369: mip =   5.597128000e+00 >=   5.211413714e+00   6.9% (3917; 8663)
+237746: mip =   5.597128000e+00 >=   5.212857652e+00   6.9% (3961; 8684)
+240689: mip =   5.597128000e+00 >=   5.212857652e+00   6.9% (3973; 8786)
+242044: mip =   5.597128000e+00 >=   5.212857652e+00   6.9% (3975; 8976)
+246842: mip =   5.597128000e+00 >=   5.221297556e+00   6.7% (3880; 9279)
+249015: mip =   5.597128000e+00 >=   5.222128000e+00   6.7% (3916; 9289)
+251637: mip =   5.597128000e+00 >=   5.223600750e+00   6.7% (4041; 9302)
+255592: mip =   5.597128000e+00 >=   5.223600750e+00   6.7% (4088; 9317)
+258082: mip =   5.597128000e+00 >=   5.231115889e+00   6.5% (4119; 9363)
+261552: mip =   5.597128000e+00 >=   5.237128000e+00   6.4% (4089; 9517)
+264769: mip =   5.597128000e+00 >=   5.237244786e+00   6.4% (4141; 9536)
+269836: mip =   5.597128000e+00 >=   5.241614375e+00   6.4% (4195; 9576)
Time used: 420.1 secs.  Memory used: 82.8 Mb.
+270944: mip =   5.597128000e+00 >=   5.243200667e+00   6.3% (4292; 9586)
+274900: mip =   5.597128000e+00 >=   5.249091667e+00   6.2% (4366; 9639)
+278734: mip =   5.597128000e+00 >=   5.259628000e+00   6.0% (4429; 9685)
+281215: mip =   5.597128000e+00 >=   5.259628000e+00   6.0% (4438; 9866)
+286529: mip =   5.597128000e+00 >=   5.267149435e+00   5.9% (4472; 9934)
+291566: mip =   5.597128000e+00 >=   5.279000833e+00   5.7% (4465; 10043)
+296932: mip =   5.597128000e+00 >=   5.291237000e+00   5.5% (4507; 10244)
+302764: mip =   5.597128000e+00 >=   5.291237000e+00   5.5% (4592; 10281)
+307615: mip =   5.597128000e+00 >=   5.291237000e+00   5.5% (4701; 10596)
+311717: mip =   5.597128000e+00 >=   5.291237000e+00   5.5% (4872; 10871)
+314182: mip =   5.597128000e+00 >=   5.291237000e+00   5.5% (4925; 11048)
+316668: mip =   5.597128000e+00 >=   5.291237000e+00   5.5% (4922; 11324)
Time used: 480.1 secs.  Memory used: 92.7 Mb.
+323909: mip =   5.597128000e+00 >=   5.291237000e+00   5.5% (4908; 11779)
+327546: mip =   5.597128000e+00 >=   5.291237000e+00   5.5% (4961; 11829)
+333570: mip =   5.597128000e+00 >=   5.294771600e+00   5.4% (4959; 11905)
+338475: mip =   5.597128000e+00 >=   5.294771600e+00   5.4% (5051; 11937)
+341087: mip =   5.597128000e+00 >=   5.294771600e+00   5.4% (5148; 11955)
+346959: mip =   5.597128000e+00 >=   5.297128000e+00   5.4% (5207; 12024)
+352702: mip =   5.597128000e+00 >=   5.297128000e+00   5.4% (5223; 12112)
+359720: mip =   5.597128000e+00 >=   5.300073500e+00   5.3% (5194; 12223)
+364102: mip =   5.597128000e+00 >=   5.300073500e+00   5.3% (5229; 12294)
+368082: mip =   5.597128000e+00 >=   5.304690287e+00   5.2% (5280; 12398)
+373866: mip =   5.597128000e+00 >=   5.314801000e+00   5.0% (5233; 12547)
+379317: mip =   5.597128000e+00 >=   5.317836217e+00   5.0% (5022; 13514)
Time used: 540.1 secs.  Memory used: 103.5 Mb.
+383730: mip =   5.597128000e+00 >=   5.317836217e+00   5.0% (4842; 14367)
+388898: mip =   5.597128000e+00 >=   5.327491333e+00   4.8% (4823; 14665)
+393883: mip =   5.597128000e+00 >=   5.336770696e+00   4.7% (4819; 14868)
+398700: mip =   5.597128000e+00 >=   5.345164333e+00   4.5% (4794; 15298)
+403029: mip =   5.597128000e+00 >=   5.346622130e+00   4.5% (4839; 15361)
+409510: mip =   5.597128000e+00 >=   5.361553304e+00   4.2% (4694; 15655)
+415778: mip =   5.597128000e+00 >=   5.372128000e+00   4.0% (4666; 15820)
+419604: mip =   5.597128000e+00 >=   5.372128000e+00   4.0% (4643; 15928)
+424016: mip =   5.597128000e+00 >=   5.389521647e+00   3.7% (4643; 16081)
+428393: mip =   5.597128000e+00 >=   5.399128000e+00   3.5% (4636; 16215)
+433303: mip =   5.597128000e+00 >=   5.417128000e+00   3.2% (4617; 16324)
+442569: mip =   5.597128000e+00 >=   5.444041652e+00   2.7% (4487; 16651)
Time used: 600.2 secs.  Memory used: 105.8 Mb.
+447380: mip =   5.597128000e+00 >=   5.447128000e+00   2.7% (4383; 16838)
+453036: mip =   5.597128000e+00 >=   5.453019000e+00   2.6% (4220; 17525)
+457883: mip =   5.597128000e+00 >=   5.453019000e+00   2.6% (4190; 18170)
+463067: mip =   5.597128000e+00 >=   5.453019000e+00   2.6% (4154; 18835)
+466491: mip =   5.597128000e+00 >=   5.453019000e+00   2.6% (4203; 19454)
+470525: mip =   5.597128000e+00 >=   5.453019000e+00   2.6% (4241; 19798)
+472552: mip =   5.597128000e+00 >=   5.453019000e+00   2.6% (4193; 20428)
+474412: mip =   5.597128000e+00 >=   5.453019000e+00   2.6% (4171; 20901)
+478822: mip =   5.597128000e+00 >=   5.453019000e+00   2.6% (4183; 21233)
+483076: mip =   5.597128000e+00 >=   5.453019000e+00   2.6% (4100; 21669)
+486144: mip =   5.597128000e+00 >=   5.453019000e+00   2.6% (4103; 21974)
+488618: mip =   5.597128000e+00 >=   5.453019000e+00   2.6% (4018; 22383)
Time used: 660.2 secs.  Memory used: 106.6 Mb.
+491266: mip =   5.597128000e+00 >=   5.453019000e+00   2.6% (4001; 22752)
+493417: mip =   5.597128000e+00 >=   5.453019000e+00   2.6% (3996; 23307)
+495772: mip =   5.597128000e+00 >=   5.453019000e+00   2.6% (3871; 23761)
+497762: mip =   5.597128000e+00 >=   5.453019000e+00   2.6% (3854; 24166)
+499677: mip =   5.597128000e+00 >=   5.453019000e+00   2.6% (3933; 24280)
+502725: mip =   5.597128000e+00 >=   5.453019000e+00   2.6% (4034; 24385)
+505293: mip =   5.597128000e+00 >=   5.453019000e+00   2.6% (4002; 24776)
+507301: mip =   5.597128000e+00 >=   5.453019000e+00   2.6% (4013; 24926)
+508646: mip =   5.597128000e+00 >=   5.453019000e+00   2.6% (4016; 25054)
+512428: mip =   5.597128000e+00 >=   5.453019000e+00   2.6% (4040; 25707)
+518766: mip =   5.597128000e+00 >=   5.453019000e+00   2.6% (4067; 25886)
+523676: mip =   5.597128000e+00 >=   5.453019000e+00   2.6% (4111; 26128)
Time used: 720.2 secs.  Memory used: 107.9 Mb.
+524729: mip =   5.597128000e+00 >=   5.453019000e+00   2.6% (4108; 26523)
+525785: mip =   5.597128000e+00 >=   5.453019000e+00   2.6% (4188; 26778)
+527242: mip =   5.597128000e+00 >=   5.453019000e+00   2.6% (4114; 27346)
+532166: mip =   5.597128000e+00 >=   5.453019000e+00   2.6% (4038; 27822)
+537281: mip =   5.597128000e+00 >=   5.453019000e+00   2.6% (4062; 28111)
+540756: mip =   5.597128000e+00 >=   5.453019000e+00   2.6% (4105; 28233)
+544153: mip =   5.597128000e+00 >=   5.453019000e+00   2.6% (4037; 28769)
+548017: mip =   5.597128000e+00 >=   5.453019000e+00   2.6% (4034; 29089)
+554404: mip =   5.597128000e+00 >=   5.453019000e+00   2.6% (4025; 29246)
+558650: mip =   5.597128000e+00 >=   5.453019000e+00   2.6% (3998; 29747)
+563689: mip =   5.597128000e+00 >=   5.453019000e+00   2.6% (4044; 29946)
+568719: mip =   5.597128000e+00 >=   5.453019000e+00   2.6% (4033; 30156)
Time used: 780.2 secs.  Memory used: 109.3 Mb.
+574072: mip =   5.597128000e+00 >=   5.453019000e+00   2.6% (4051; 30356)
+579397: mip =   5.597128000e+00 >=   5.453019000e+00   2.6% (4054; 30521)
+582784: mip =   5.597128000e+00 >=   5.453019000e+00   2.6% (4124; 30653)
+584806: mip =   5.597128000e+00 >=   5.453019000e+00   2.6% (4109; 31021)
+587046: mip =   5.597128000e+00 >=   5.453019000e+00   2.6% (4076; 31413)
+589319: mip =   5.597128000e+00 >=   5.453019000e+00   2.6% (4097; 31785)
+590919: mip =   5.597128000e+00 >=   5.453019000e+00   2.6% (4100; 32296)
+592793: mip =   5.597128000e+00 >=   5.453019000e+00   2.6% (4165; 32579)
+594412: mip =   5.597128000e+00 >=   5.453019000e+00   2.6% (4121; 33124)
+595854: mip =   5.597128000e+00 >=   5.453019000e+00   2.6% (4125; 33627)
+598865: mip =   5.597128000e+00 >=   5.453019000e+00   2.6% (4141; 33808)
+602226: mip =   5.597128000e+00 >=   5.453019000e+00   2.6% (4196; 33862)
Time used: 840.2 secs.  Memory used: 111.6 Mb.
+604812: mip =   5.597128000e+00 >=   5.453019000e+00   2.6% (4173; 34176)
+606345: mip =   5.597128000e+00 >=   5.453019000e+00   2.6% (4183; 34374)
+607998: mip =   5.597128000e+00 >=   5.453019000e+00   2.6% (4199; 34788)
+609132: mip =   5.597128000e+00 >=   5.453019000e+00   2.6% (4254; 35171)
+614150: mip =   5.597128000e+00 >=   5.453019000e+00   2.6% (4191; 35508)
+617573: mip =   5.597128000e+00 >=   5.453019000e+00   2.6% (4201; 35752)
+623837: mip =   5.597128000e+00 >=   5.453019000e+00   2.6% (4181; 35973)
+628101: mip =   5.597128000e+00 >=   5.453019000e+00   2.6% (4179; 36255)
+631939: mip =   5.597128000e+00 >=   5.453019000e+00   2.6% (4228; 36410)
+635546: mip =   5.597128000e+00 >=   5.453019000e+00   2.6% (4254; 36532)
+639384: mip =   5.597128000e+00 >=   5.453019000e+00   2.6% (4299; 36678)
Time used: 900.2 secs.  Memory used: 115.8 Mb.
+645502: mip =   5.597128000e+00 >=   5.453019000e+00   2.6% (4307; 36883)
+647731: mip =   5.597128000e+00 >=   5.453019000e+00   2.6% (4306; 36906)
+652919: mip =   5.597128000e+00 >=   5.453019000e+00   2.6% (4318; 37019)
+658531: mip =   5.597128000e+00 >=   5.453019000e+00   2.6% (4316; 37177)
+662011: mip =   5.597128000e+00 >=   5.453019000e+00   2.6% (4340; 37315)
+666305: mip =   5.597128000e+00 >=   5.453019000e+00   2.6% (4344; 37541)
+671203: mip =   5.597128000e+00 >=   5.453019000e+00   2.6% (4314; 37757)
+677294: mip =   5.597128000e+00 >=   5.453019000e+00   2.6% (4279; 38053)
+682083: mip =   5.597128000e+00 >=   5.453019000e+00   2.6% (4257; 38278)
+685072: mip =   5.597128000e+00 >=   5.453019000e+00   2.6% (4248; 38391)
+688431: mip =   5.597128000e+00 >=   5.453019000e+00   2.6% (4245; 38465)
+693623: mip =   5.597128000e+00 >=   5.453019000e+00   2.6% (4245; 38575)
Time used: 960.2 secs.  Memory used: 116.9 Mb.
+698767: mip =   5.597128000e+00 >=   5.453019000e+00   2.6% (4244; 38718)
+701901: mip =   5.597128000e+00 >=   5.453019000e+00   2.6% (4188; 38924)
+705698: mip =   5.597128000e+00 >=   5.453019000e+00   2.6% (4191; 39122)
+713058: mip =   5.597128000e+00 >=   5.453019000e+00   2.6% (4151; 39314)
+717677: mip =   5.597128000e+00 >=   5.453019000e+00   2.6% (4164; 39436)
+722296: mip =   5.597128000e+00 >=   5.453019000e+00   2.6% (4180; 39847)
+726745: mip =   5.597128000e+00 >=   5.453019000e+00   2.6% (4132; 40107)
+731451: mip =   5.597128000e+00 >=   5.453019000e+00   2.6% (4137; 40294)
+734899: mip =   5.597128000e+00 >=   5.453019000e+00   2.6% (4175; 40508)
+738220: mip =   5.597128000e+00 >=   5.453019000e+00   2.6% (4206; 40757)
+743051: mip =   5.597128000e+00 >=   5.453019000e+00   2.6% (4220; 40906)
+746604: mip =   5.597128000e+00 >=   5.453019000e+00   2.6% (4217; 41366)
Time used: 1020.2 secs.  Memory used: 119.7 Mb.
+750055: mip =   5.597128000e+00 >=   5.453019000e+00   2.6% (4226; 41475)
+755218: mip =   5.597128000e+00 >=   5.453019000e+00   2.6% (4236; 41595)
+758992: mip =   5.597128000e+00 >=   5.453019000e+00   2.6% (4251; 41769)
+762638: mip =   5.597128000e+00 >=   5.453019000e+00   2.6% (4270; 41984)
+764364: mip =   5.597128000e+00 >=   5.453019000e+00   2.6% (4288; 42019)
+768728: mip =   5.597128000e+00 >=   5.453019000e+00   2.6% (4276; 42392)
+772536: mip =   5.597128000e+00 >=   5.453019000e+00   2.6% (4289; 42467)
+777906: mip =   5.597128000e+00 >=   5.453019000e+00   2.6% (4314; 42676)
+782640: mip =   5.597128000e+00 >=   5.453019000e+00   2.6% (4326; 42894)
+788282: mip =   5.597128000e+00 >=   5.453019000e+00   2.6% (4294; 43242)
+796156: mip =   5.597128000e+00 >=   5.454393304e+00   2.6% (4138; 43558)
+803285: mip =   5.597128000e+00 >=   5.455814031e+00   2.5% (4023; 43800)
Time used: 1080.3 secs.  Memory used: 122.2 Mb.
+808505: mip =   5.597128000e+00 >=   5.456932043e+00   2.5% (3878; 44202)
+813171: mip =   5.597128000e+00 >=   5.459284609e+00   2.5% (3747; 44745)
+815527: mip =   5.597128000e+00 >=   5.459540739e+00   2.5% (3639; 45218)
+816114: mip =   5.597128000e+00 >=   5.459540739e+00   2.5% (3637; 45513)
+816820: mip =   5.597128000e+00 >=   5.459540739e+00   2.5% (3636; 45622)
+819883: mip =   5.597128000e+00 >=   5.460845087e+00   2.4% (3584; 46056)
+820439: mip =   5.597128000e+00 >=   5.460845087e+00   2.4% (3598; 46243)
+820589: mip =   5.597128000e+00 >=   5.460845087e+00   2.4% (3641; 46381)
+826066: mip =   5.597128000e+00 >=   5.462801609e+00   2.4% (3450; 46902)
+829680: mip =   5.597128000e+00 >=   5.463185804e+00   2.4% (3265; 47350)
+836230: mip =   5.597128000e+00 >=   5.466318609e+00   2.3% (3083; 48001)
+839362: mip =   5.597128000e+00 >=   5.469451413e+00   2.3% (3101; 48265)
Time used: 1140.3 secs.  Memory used: 122.2 Mb.
+846007: mip =   5.597128000e+00 >=   5.476538900e+00   2.2% (2789; 49248)
+851673: mip =   5.597128000e+00 >=   5.479618217e+00   2.1% (2555; 50235)
+855454: mip =   5.597128000e+00 >=   5.479618217e+00   2.1% (2491; 50698)
+859088: mip =   5.597128000e+00 >=   5.479618217e+00   2.1% (2405; 51032)
+863548: mip =   5.597128000e+00 >=   5.479618217e+00   2.1% (2334; 51559)
+865478: mip =   5.597128000e+00 >=   5.479618217e+00   2.1% (2329; 51947)
+866480: mip =   5.597128000e+00 >=   5.479618217e+00   2.1% (2344; 52046)
+871553: mip =   5.597128000e+00 >=   5.481248652e+00   2.1% (2285; 52351)
+877279: mip =   5.597128000e+00 >=   5.485883826e+00   2.0% (2097; 53104)
+882700: mip =   5.597128000e+00 >=   5.492149435e+00   1.9% (1957; 53764)
+886854: mip =   5.597128000e+00 >=   5.496516564e+00   1.8% (1820; 54488)
+893061: mip =   5.597128000e+00 >=   5.516630368e+00   1.4% (1463; 55675)
Time used: 1200.3 secs.  Memory used: 122.2 Mb.
+895813: mip =   5.597128000e+00 >=   5.518748652e+00   1.4% (1415; 56071)
+896585: mip =   5.597128000e+00 >=   5.518748652e+00   1.4% (1500; 56109)
+897703: mip =   5.597128000e+00 >=   5.518748652e+00   1.4% (1411; 56407)
+899734: mip =   5.597128000e+00 >=   5.518748652e+00   1.4% (1389; 56775)
+901790: mip =   5.597128000e+00 >=   5.518748652e+00   1.4% (1411; 57027)
+905674: mip =   5.597128000e+00 >=   5.528152817e+00   1.2% (1183; 57993)
+909310: mip =   5.597128000e+00 >=   5.547712283e+00   0.9% (835; 59657)
+912023: mip =   5.597128000e+00 >=   5.564064680e+00   0.6% (618; 60936)
+914138: mip =   5.597128000e+00 >=   5.565519000e+00   0.6% (505; 61481)
+919335: mip =   5.597128000e+00 >=   5.593593400e+00 < 0.1% (32; 64842)
+921219: mip =   5.597128000e+00 >=     tree is empty   0.0% (0; 65541)
INTEGER OPTIMAL SOLUTION FOUND
Time used:   1249.3 secs
Memory used: 124.6 Mb (130614224 bytes)
Writing MIP solution to '/tmp/tmp290sbakq.glpk.raw'...
35565 lines were written

Time in solver (for this epsilon): 1249.3379776477814 s
Elapsed time (for this epsilon): 1249.8378591537476 s


Total elapsed time since execution of first epsilon: 285081.1801378727 s

Results:

E = 5.597128 mA
C = 166.0 points
C ~= 66.4 km^2

Minimum Epsilon for this instance = 11
Maximum Epsilon for this instance = 172

Current Epsilon = 165


Instance Epsilon Preprocessing Time: 0.00529789924621582 s


Updated solution vectors:
sol_E = [-0.611782,-1.061782,-1.061782,-1.061782,-1.367673,-1.511782,-1.511782,-1.817673,-2.267673,-2.573564,-2.573564,-3.329455,-3.329455,-4.391237,-5.597128]
sol_C = [14.0,30.0,33.0,44.0,58.0,66.0,78.0,95.0,101.0,112.0,129.0,132.0,145.0,154.0,166.0]
sol_eps = [11,22,33,44,55,66,77,88,99,110,121,132,143,154,165]
sol_gap = [0.0,0.0,0.0,0.0,0.0,0.0,0.0,0.0,0.0,0.0,0.0,0.0,0.0,0.0,0.0]
